nNurses = 64;
nHours = 28;
minHours = 5;
maxHours = 16;
maxConsec = 10;
maxPresence = 18;
demand = [27, 25, 26, 24, 21, 25, 23, 26, 26, 23, 22, 27, 22, 27, 27, 28, 25, 20, 18, 13, 10, 6, 7, 11, 15, 15, 12, 8];
